[0] PARAMETER_FILE = LKH_raw.par
[0] Reading PROBLEM_FILE: "tsp_raw.tsp" ... done
[0] ASCENT_CANDIDATES = 50
[0] BACKBONE_TRIALS = 0
[0] BACKTRACKING = NO
[0] # CANDIDATE_FILE =
[0] CANDIDATE_SET_TYPE = ALPHA
[0] EXCESS = 0.0144928
[0] EXTRA_CANDIDATES = 0 
[0] EXTRA_CANDIDATE_SET_TYPE = QUADRANT
[0] GAIN23 = YES
[0] GAIN_CRITERION = YES
[0] INITIAL_PERIOD = 100
[0] INITIAL_STEP_SIZE = 1
[0] INITIAL_TOUR_ALGORITHM = WALK
[0] # INITIAL_TOUR_FILE = 
[0] INITIAL_TOUR_FRACTION = 1.000
[0] # INPUT_TOUR_FILE = 
[0] KICK_TYPE = 0
[0] KICKS = 1
[0] # MAX_BREADTH =
[0] MAX_CANDIDATES = 5 
[0] MAX_SWAPS = 69
[0] MAX_TRIALS = 69
[0] # MERGE_TOUR_FILE =
[0] MOVE_TYPE = 5
[0] # NONSEQUENTIAL_MOVE_TYPE = 5
[0] # OPTIMUM =
[0] OUTPUT_TOUR_FILE = tsp_raw_LKH.sol
[0] PATCHING_A = 1 
[0] PATCHING_C = 0 
[0] # PI_FILE = 
[0] # POPULATION_SIZE = 0
[0] PRECISION = 100
[0] PROBLEM_FILE = tsp_raw.tsp
[0] RESTRICTED_SEARCH = YES
[0] RUNS = 10
[0] SEED = 1
[0] STOP_AT_OPTIMUM = YES
[0] SUBGRADIENT = YES
[0] # SUBPROBLEM_SIZE =
[0] # SUBPROBLEM_TOUR_FILE = 
[0] SUBSEQUENT_MOVE_TYPE = 5
[0] SUBSEQUENT_PATCHING = YES
[0] # TIME_LIMIT =
[0] # TOUR_FILE = 
[0] TRACE_LEVEL = 1
[0] 
[0] Lower bound = 668557.0, Ascent time = 0.02 sec.
[0] Cand.min = 5, Cand.avg = 5.0, Cand.max = 5
[0] Preprocessing time = 0.02 sec.
[0] Writing OUTPUT_TOUR_FILE: "tsp_raw_LKH.sol" ... done
[0] Successes/Runs = 1/0 
[0] Cost.min = 668557, Cost.avg = 668557.00, Cost.max = 668557
[0] Gap.min = 0.0000%, Gap.avg = 0.0000%, Gap.max = 0.0000%
[0] Trials.min = 0, Trials.avg = 0.0, Trials.max = 0
[0] Time.min = 0.02 sec., Time.avg = 0.02 sec., Time.max = 0.02 sec.
